50

91 13 190
88 6 370
88 22 184
87 27 382
87 24 367
86 22 281
86 16 302
85 16 302
85 19 458
84 4 470
83 17 247
80 1 249
79 16 181
78 5 424
77 18 243
70 21 270
70 17 339
68 12 409
67 3 466
66 14 292
59 9 353
52 4 466
49 13 448
48 15 428
47 9 484
47 9 243
44 4 382
42 3 427
38 11 372
37 7 292
37 3 301
34 8 188
34 0 472
33 7 272
31 9 461
29 4 340
27 0 188
24 2 395
21 0 394
17 4 249
16 2 429
16 0 227
15 2 448
14 0 263
8 0 252
6 1 308
5 0 450
4 1 202
2 0 204
2 0 493
